WARNING: for repeatability, setting FPU to use double precision
============================[ Problem Statistics ]=============================
|                                                                             |
|  Number of variables:           280                                         |
|  Number of clauses:            1105                                         |
|  Parse time:                   0.00 s                                       |
|                                                                             |
============================[ Search Statistics ]==============================
| Conflicts |          ORIGINAL         |          LEARNT          | Progress |
|           |    Vars  Clauses Literals |    Limit  Clauses Lit/Cl |          |
===============================================================================
|       100 |     280     1105     3176 |      405      100      7 |  0.006 % |
===============================================================================
restarts              : 3
conflicts             : 226            (inf /sec)
decisions             : 297            (0.00 % random) (inf /sec)
propagations          : 11789          (inf /sec)
conflict literals     : 1354           (29.66 % deleted)
Memory used           : 19.00 MB
CPU time              : 0 s

UNSATISFIABLE
